nzones = 0;
nturb = 50;

R = 38.5;

w = 3000;
h = 3000;

zx = [];
zy = [];
zwidth = [];
zheight = [];

init_x = [ 0, 0, 0, 0, 0, 0, 0, 429, 429, 429, 429, 429, 429, 857, 857, 857, 857, 857, 857, 1286, 1286, 1286, 1286, 1286, 1286, 1714, 1714, 1714, 1714, 1714, 1714, 2143, 2143, 2143, 2143, 2143, 2143, 2571, 2571, 2571, 2571, 2571, 2571, 3000, 3000, 3000, 3000, 3000, 3000, 3000 ];
init_y = [ 0, 500, 1000, 1500, 2000, 2500, 3000, 0, 1000, 1500, 2000, 2500, 3000, 0, 500, 1500, 2000, 2500, 3000, 0, 500, 1000, 2000, 2500, 3000, 0, 500, 1000, 1500, 2500, 3000, 0, 500, 1000, 1500, 2000, 3000, 0, 500, 1000, 1500, 2000, 2500, 0, 500, 1000, 1500, 2000, 2500, 3000 ];
